c instance by G2
c solution = 00011000100
c Known solution cost is 569 
p cnf 11 30
w 0 82 58 9 78 49 40 84 83 71 15
-1 7 -6 0
4 2 10 0
10 2 -7 0
-5 8 4 0
7 -1 4 0
11 -2 1 0
10 -6 -1 0
-2 9 4 0
-11 -5 -4 0
-5 2 -1 0
10 -7 11 0
-6 7 1 0
-10 8 7 0
8 -7 -9 0
3 9 11 0
3 9 -1 0
3 6 -8 0
-3 6 7 0
3 5 7 0
11 -3 -1 0
-8 2 -1 0
-11 7 -6 0
-4 9 -11 0
-10 -6 7 0
5 -2 -10 0
-3 10 11 0
-5 -8 7 0
7 4 -6 0
11 -10 3 0
-8 -3 5 0
